29.22 0.21 3.78 10.97 0.14 2.51 23.54 0.28 3.09 28.78 0.17 3.27
26.27 0.15 3.44 29.66 0.18 4.09 17.42 0.22 4.02 12.15 0.23 4.98
17.43 0.22 2.35 22.9 0.18 4.79 18.53 0.12 3.72 22.6 0.19 4.6
23.14 0.11 4.65 29.63 0.13 4.44 11.72 0.2 2.57 25.72 0.27 3.79
13.99 0.2 4.87 26.94 0.23 3.27 24.59 0.27 2.01 22.82 0.14 4.68
23.88 0.18 2.22 17.48 0.16 2.89 26.8 0.13 4.71 23.53 0.17 4.51
17.95 0.11 3.39 27.64 0.11 4.26 27.04 0.25 4.25 27.57 0.15 4.94
19.03 0.29 4.97 17.2 0.12 2.78 11.22 0.1 2.46 23.44 0.14 3.63
20.89 0.21 4.77 17.85 0.14 4.95 18.05 0.23 4.1 20.3 0.23 3.53
22.63 0.17 4.13 22.18 0.19 4.08 19.41 0.15 3.73 22.51 0.16 4.67
